(set-info :smt-lib-version 2.6)
(set-logic QF_UFLRA)
(set-info :source |
MathSat group

|)
(set-info :category "random")
(set-info :status sat)
(declare-fun x0 () Real)
(declare-fun x1 () Real)
(declare-fun x2 () Real)
(declare-fun x3 () Real)
(declare-fun x4 () Real)
(declare-fun x5 () Real)
(declare-fun x6 () Real)
(declare-fun x7 () Real)
(declare-fun x8 () Real)
(declare-fun x9 () Real)
(declare-fun x10 () Real)
(declare-fun x11 () Real)
(declare-fun x12 () Real)
(declare-fun x13 () Real)
(declare-fun x14 () Real)
(declare-fun x15 () Real)
(declare-fun x16 () Real)
(declare-fun x17 () Real)
(declare-fun x18 () Real)
(declare-fun x19 () Real)
(declare-fun x20 () Real)
(declare-fun x21 () Real)
(declare-fun x22 () Real)
(declare-fun x23 () Real)
(declare-fun x24 () Real)
(declare-fun x25 () Real)
(declare-fun x26 () Real)
(declare-fun x27 () Real)
(declare-fun x28 () Real)
(declare-fun x29 () Real)
(declare-fun x30 () Real)
(declare-fun x31 () Real)
(declare-fun x32 () Real)
(declare-fun x33 () Real)
(declare-fun x34 () Real)
(declare-fun x35 () Real)
(declare-fun x36 () Real)
(declare-fun x37 () Real)
(declare-fun x38 () Real)
(declare-fun x39 () Real)
(declare-fun x40 () Real)
(declare-fun x41 () Real)
(declare-fun x42 () Real)
(declare-fun x43 () Real)
(declare-fun x44 () Real)
(declare-fun x45 () Real)
(declare-fun x46 () Real)
(declare-fun x47 () Real)
(declare-fun x48 () Real)
(declare-fun x49 () Real)
(declare-fun f0_1 (Real) Real)
(declare-fun f0_2 (Real Real) Real)
(declare-fun f0_3 (Real Real Real) Real)
(declare-fun f0_4 (Real Real Real Real) Real)
(declare-fun P0 () Bool)
(declare-fun P1 () Bool)
(declare-fun P2 () Bool)
(declare-fun P3 () Bool)
(declare-fun P4 () Bool)
(declare-fun P5 () Bool)
(declare-fun P6 () Bool)
(declare-fun P7 () Bool)
(declare-fun P8 () Bool)
(declare-fun P9 () Bool)
(declare-fun P10 () Bool)
(declare-fun P11 () Bool)
(declare-fun P12 () Bool)
(declare-fun P13 () Bool)
(declare-fun P14 () Bool)
(declare-fun P15 () Bool)
(declare-fun P16 () Bool)
(declare-fun P17 () Bool)
(declare-fun P18 () Bool)
(declare-fun P19 () Bool)
(declare-fun P20 () Bool)
(declare-fun P21 () Bool)
(declare-fun P22 () Bool)
(declare-fun P23 () Bool)
(declare-fun P24 () Bool)
(declare-fun P25 () Bool)
(declare-fun P26 () Bool)
(declare-fun P27 () Bool)
(declare-fun P28 () Bool)
(declare-fun P29 () Bool)
(declare-fun P30 () Bool)
(declare-fun P31 () Bool)
(declare-fun P32 () Bool)
(declare-fun P33 () Bool)
(declare-fun P34 () Bool)
(declare-fun P35 () Bool)
(declare-fun P36 () Bool)
(declare-fun P37 () Bool)
(declare-fun P38 () Bool)
(declare-fun P39 () Bool)
(declare-fun P40 () Bool)
(declare-fun P41 () Bool)
(declare-fun P42 () Bool)
(declare-fun P43 () Bool)
(declare-fun P44 () Bool)
(declare-fun P45 () Bool)
(declare-fun P46 () Bool)
(declare-fun P47 () Bool)
(declare-fun P48 () Bool)
(declare-fun P49 () Bool)
(assert (let ((?v_48 (< (- (- (* 27 x49) (* 21 x4)) (* 3 x7)) 0)) (?v_181 (* 3 x46)) (?v_5 (* 14 x45))) (let ((?v_124 (<= (+ (- ?v_181 (* 13 x46)) (* 11 x18)) 17)) (?v_24 (<= (- (- (* 22 x14) (* 11 x20)) (* 24 x41)) 13)) (?v_204 (< (+ (- (* 23 x3) (* 22 x43)) (* 16 x35)) 19)) (?v_86 (= (- (- (* 15 x15) (* 17 x23)) (* 12 x15)) 21)) (?v_153 (<= (- (+ (* 27 x12) (* 27 x27)) (* 16 x27)) 10)) (?v_25 (< (+ (- (* 24 x2) (* 25 x18)) (* 27 x10)) 11)) (?v_0 (f0_1 x31)) (?v_3 (f0_1 x37))) (let ((?v_139 (= ?v_0 ?v_3)) (?v_19 (f0_1 x28))) (let ((?v_217 (distinct ?v_19 (f0_2 x28 x12))) (?v_89 (= (f0_1 x16) (f0_2 x34 x23))) (?v_131 (= x33 ?v_3)) (?v_256 (distinct (f0_2 x39 x1) (f0_1 x44))) (?v_17 (= (f0_2 x46 x22) (f0_1 x33))) (?v_39 (= (f0_1 x2) (f0_1 x3))) (?v_109 (distinct (f0_2 x23 x13) x21)) (?v_224 (= (f0_1 x11) (f0_2 x1 x37))) (?v_32 (f0_1 x18))) (let ((?v_77 (distinct (f0_2 x26 x35) ?v_32)) (?v_101 (f0_1 x21))) (let ((?v_85 (= ?v_101 (f0_2 x15 x1))) (?v_12 (distinct x43 (f0_2 x25 x1))) (?v_119 (distinct (f0_1 x25) x39)) (?v_97 (distinct (f0_1 x10) x25)) (?v_4 (f0_1 x20))) (let ((?v_114 (= (f0_2 x18 x7) ?v_4)) (?v_152 (distinct x26 (f0_2 x47 x45))) (?v_240 (distinct ?v_3 (f0_2 x36 x43))) (?v_33 (= (f0_2 x25 x26) (f0_2 x19 x8))) (?v_64 (= x43 x13)) (?v_45 (= x48 ?v_0)) (?v_225 (= x16 x17)) (?v_16 (distinct x25 x23)) (?v_82 (= x3 (f0_2 x2 x35))) (?v_234 (distinct (f0_1 x42) (f0_2 x1 x28))) (?v_15 (f0_1 x29))) (let ((?v_28 (= ?v_19 ?v_15)) (?v_133 (= x25 (f0_2 x42 x47))) (?v_54 (distinct x14 x24)) (?v_2 (= (f0_1 x41) x16)) (?v_13 (distinct ?v_4 x43)) (?v_121 (distinct x40 (f0_1 x13))) (?v_53 (f0_1 x36))) (let ((?v_61 (= ?v_53 ?v_32)) (?v_123 (distinct x8 (f0_2 x21 x19))) (?v_110 (distinct (f0_2 x22 x46) (f0_2 x24 x41))) (?v_67 (distinct x45 (f0_2 x45 x31))) (?v_93 (f0_1 x39))) (let ((?v_95 (distinct ?v_93 (f0_2 x49 x18))) (?v_43 (= (f0_2 x38 x35) (f0_2 x9 x8))) (?v_21 (distinct (f0_1 x26) (f0_2 x38 x20))) (?v_244 (distinct (f0_2 x44 x45) ?v_93)) (?v_115 (distinct (f0_2 x39 x23) x23)) (?v_135 (distinct ?v_101 x24)) (?v_66 (f0_1 x40))) (let ((?v_36 (= ?v_66 (f0_2 x42 x45))) (?v_76 (= x41 (f0_2 x29 x9))) (?v_129 (= ?v_53 x9)) (?v_79 (= x3 (f0_2 x1 x45))) (?v_140 (distinct (f0_2 x27 x46) (f0_2 x6 x36))) (?v_125 (distinct x14 ?v_66)) (?v_23 (distinct ?v_15 (f0_2 x40 x45))) (?v_207 (distinct (f0_2 x30 x13) x2)) (?v_213 (= x45 (f0_1 x17))) (?v_31 (= x34 x6)) (?v_7 (not P40)) (?v_130 (not ?v_133)) (?v_212 (not P3)) (?v_10 (not P28)) (?v_205 (not P49)) (?v_9 (not ?v_82))) (let ((?v_257 (or P6 ?v_9)) (?v_18 (not ?v_79)) (?v_171 (not ?v_234)) (?v_183 (not ?v_139)) (?v_20 (not ?v_45)) (?v_166 (not ?v_240)) (?v_42 (not P19)) (?v_11 (not P41)) (?v_193 (not P1)) (?v_8 (not ?v_119)) (?v_176 (not P35)) (?v_161 (not ?v_131)) (?v_30 (not P18)) (?v_150 (not P6)) (?v_246 (not P0)) (?v_226 (not P7)) (?v_38 (not ?v_23)) (?v_136 (not P44)) (?v_203 (not P31)) (?v_158 (not ?v_16)) (?v_27 (not P23)) (?v_44 (not ?v_17)) (?v_52 (not ?v_61)) (?v_157 (not P27)) (?v_230 (not ?v_121)) (?v_57 (not P2)) (?v_91 (not P42)) (?v_81 (not ?v_24)) (?v_74 (not ?v_25)) (?v_195 (not ?v_123)) (?v_137 (not ?v_12)) (?v_182 (not P45)) (?v_141 (not P22)) (?v_60 (not P30)) (?v_51 (not ?v_43)) (?v_73 (not ?v_28)) (?v_191 (not ?v_204)) (?v_68 (not P47)) (?v_75 (not P8)) (?v_34 (not P5)) (?v_88 (not ?v_36)) (?v_241 (not P10)) (?v_100 (not ?v_225)) (?v_55 (not ?v_39)) (?v_72 (not ?v_85)) (?v_216 (not P36)) (?v_103 (not ?v_33)) (?v_104 (not ?v_31)) (?v_211 (not ?v_89)) (?v_173 (not ?v_54)) (?v_200 (not ?v_13)) (?v_227 (not P21)) (?v_111 (not ?v_64)) (?v_105 (not ?v_153)) (?v_186 (not P11)) (?v_138 (not ?v_207)) (?v_78 (not P16)) (?v_147 (not ?v_76)) (?v_170 (not P9)) (?v_108 (not ?v_77)) (?v_194 (not ?v_256)) (?v_155 (not ?v_109)) (?v_112 (not ?v_21)) (?v_96 (not ?v_244)) (?v_239 (not ?v_95)) (?v_252 (not ?v_97)) (?v_102 (not P29)) (?v_165 (not P39)) (?v_127 (not ?v_125)) (?v_163 (not P33)) (?v_164 (not ?v_213)) (?v_169 (not ?v_67)) (?v_229 (not P14)) (?v_185 (not ?v_115)) (?v_236 (not ?v_135)) (?v_180 (not P43)) (?v_196 (not ?v_140)) (?v_210 (not ?v_152)) (?v_201 (not P34)) (?v_167 (not P25)) (?v_233 (not P13)) (?v_258 (not P4)) (?v_255 (not ?v_2)) (?v_177 (not P12)) (?v_189 (not P15)) (?v_202 (not P32)) (?v_242 (not P48)) (?v_208 (not P37)) (?v_259 (or ?v_205 P19)) (?v_214 (not ?v_86)) (?v_222 (not ?v_110)) (?v_220 (not ?v_129)) (?v_253 (not P20)) (?v_218 (not P24)) (?v_260 (not ?v_114)) (?v_231 (not ?v_48)) (?v_238 (not ?v_224)) (?v_243 (not P17)) (?v_245 (not P38)) (?v_251 (not P26)) (?v_156 (distinct (+ (- 0 x43) (* 17 x12)) 26))) (let ((?v_37 (not ?v_156)) (?v_71 (<= (+ (* 2 x26) (* 10 x1) (* 26 x40)) 13)) (?v_35 (<= (+ (* 24 x45) (* 23 x42) (* 23 x37)) 13)) (?v_46 (<= (- (* 19 x49) (* 10 x35)) 27)) (?v_63 (<= (- (- (* 6 x19) (* 7 x43)) 0) 18)) (?v_122 (<= (- (* 15 x28) (* 5 x40)) 12))) (let ((?v_56 (not ?v_35)) (?v_142 (not ?v_46)) (?v_90 (not ?v_63)) (?v_198 (not ?v_122)) (?v_215 (not ?v_71)) (?v_235 (< (- (* 20 x41) (* 11 x9)) 1))) (let ((?v_249 (not ?v_235)) (?v_1 (< (- (- (* 26 x18) ?v_5) (* 14 x30)) (- 18))) (?v_70 (< (- (- (* (- 1) x33) (* 20 x36)) (* 13 x2)) (- 18))) (?v_41 (< (- (+ (* (- 25) x27) (* 25 x33)) (* 25 x9)) 0)) (?v_29 (< (+ (* 19 x22) (* 6 x26)) (- 13))) (?v_6 (< (+ (* (- 20) x40) (* 22 x33) ?v_5) (- 9))) (?v_40 (<= (+ (* 26 x31) (* 13 x5) (* 7 x45)) (- 10))) (?v_14 (< (+ (- (* (- 12) x20) x34) (* 11 x47)) 0))) (let ((?v_58 (not ?v_14)) (?v_149 (= (+ (- (* (- 21) x15) (* 24 x12)) (* 24 x18)) (- 6)))) (let ((?v_69 (not ?v_149)) (?v_159 (< (- (* 26 x25) (* 21 x3)) (- 2))) (?v_92 (<= (- (+ (* (- 15) x15) (* 19 x48)) (* 4 x43)) (- 20))) (?v_172 (< (+ (- (* 16 x9) (* 12 x35)) (* 16 x32)) (- 1)))) (let ((?v_87 (not ?v_172)) (?v_22 (<= (+ (- 0 (* 12 x4)) (* 6 x17)) (- 3)))) (let ((?v_80 (not ?v_22)) (?v_26 (<= (- (+ (* (- 18) x6) (* 19 x32)) (* 14 x42)) 18)) (?v_49 (<= (+ (- (* (- 2) x30) (* 26 x41)) (* 5 x26)) 21))) (let ((?v_62 (not ?v_49)) (?v_144 (= (- (+ (* (- 13) x48) x7) (* 10 x27)) (- 4))) (?v_132 (< (+ (- (* (- 15) x18) (* 18 x9)) (* 22 x24)) (- 20))) (?v_65 (< (+ (* 7 x10) (* 5 x37) (* 3 x41)) (- 13)))) (let ((?v_83 (not ?v_65)) (?v_59 (not ?v_29)) (?v_116 (< (- (- (* 27 x24) (* 18 x30)) 0) (- 3))) (?v_98 (< (- (+ (* (- 19) x5) (* 22 x12)) (* 4 x33)) 28))) (let ((?v_50 (not ?v_98)) (?v_107 (< (+ (- (* 27 x47) (* 6 x24)) (* 22 x49)) (- 9)))) (let ((?v_175 (not ?v_107)) (?v_99 (< (- (+ (* (- 6) x7) (* 11 x45)) (* 14 x4)) 2)) (?v_47 (< (- (+ (* (- 19) x6) (* 6 x9)) (* 16 x41)) (- 15)))) (let ((?v_118 (not ?v_47)) (?v_126 (< (+ (* 24 x25) x39 (* 5 x46)) (- 24)))) (let ((?v_223 (not ?v_126)) (?v_117 (not ?v_6)) (?v_128 (not ?v_40)) (?v_145 (< (+ (- (* (- 5) x7) (* 7 x14)) x20) (- 15)))) (let ((?v_94 (not ?v_145)) (?v_134 (not ?v_70)) (?v_146 (< (- (- (* (- 21) x32) (* 4 x36)) (* 25 x39)) (- 4)))) (let ((?v_84 (not ?v_146)) (?v_120 (distinct (- (- 0 (* 8 x2)) (* 2 x31)) (- 16))) (?v_151 (<= (+ (* (- 25) x3) (* 16 x30) (* 26 x38)) (- 23))) (?v_143 (< (+ (- (* 21 x46) 0) (* 14 x49)) (- 19))) (?v_228 (< (+ (* (- 10) x28) (* 22 x23) (* 17 x47)) (- 11)))) (let ((?v_250 (not ?v_228)) (?v_106 (<= (+ (* (- 15) x28) (* 22 x31) (* 3 x48)) (- 15))) (?v_232 (<= (- (- (* 2 x19) (* 11 x41)) (* 27 x45)) (- 5))) (?v_209 (not ?v_99)) (?v_190 (not ?v_1))) (let ((?v_168 (not ?v_106)) (?v_179 (<= (+ (* (- 4) x10) (* 5 x18) (* 17 x43)) (- 28)))) (let ((?v_113 (not ?v_179)) (?v_237 (not ?v_116)) (?v_148 (not ?v_41)) (?v_184 (< (- (* (- 9) x49) (* 7 x19)) 26)) (?v_247 (< (+ (* (- 25) x48) (* 6 x7)) (- 11)))) (let ((?v_178 (not ?v_247)) (?v_162 (not ?v_132)) (?v_187 (not ?v_143)) (?v_160 (not ?v_26)) (?v_154 (not ?v_144)) (?v_254 (not ?v_151)) (?v_197 (not ?v_159)) (?v_174 (not ?v_120)) (?v_199 (<= (- (+ ?v_181 (* 3 x10)) (* 12 x42)) (- 9))) (?v_192 (not ?v_184)) (?v_188 (< (- (+ (* (- 9) x5) (* 8 x37)) (* 3 x31)) (- 7)))) (let ((?v_221 (not ?v_188)) (?v_206 (not ?v_92)) (?v_219 (not ?v_199)) (?v_248 (not ?v_232))) (and (and (and (and (and (and (and (and (and (and (and (and (and (and (and (and (and (and (and (and (and (and (and (and (and (and (and (and (and (and (and (and (and (and (and (and (and (and (and (and (and (and (and (and (and (and (and (and (and (and (and (and (and (and (and (and (and (and (and (and (and (and (and (and (and (and (and (and (and (and (and (and (and (and (and (and (and (and (and (and (and (and (and (and (and (and (and (and (and (and (and (and (and (and (and (and (and (and (and (and (and (and (and (and (and (and (and (and (and (and (and (and (and (and (and (and (and (and (and (and (and (and (and (and (and (and (and (and (and (and (and (and (and (and (and (and (and (and (and (and (and (and (and (and (and (and (and (and (and (and (and (and (and (and (and (and (and (and (and (and (and (and (and (and (and (and (and (and (and (and (and (and (and (and (and (and (and (and (and (and (and (and (and (and (and (and (and (and (and (and (and (and (and (and (and (and (and (and (and (and (and (and (and (and (and (and (and (and (and (and (and (and (and (and (and (and (and (and (and (and (and (and (and (and (and (and (and (and (and (and (and (and (and (and (and (and (and (and (and (and (and (and (and (and (and (and (and (and (and (and (and (and (and (and (and (and (and (and (and (and (and (and (and (and (and (and (and (and (and (and (and (and (and (and (and (and (and (and (and (and (and (and (and (and (and (and (and (and (and (and (and (and (and (and (and (and (and (and (and (and (and (and (and (and (and (and (and (and (and (and (and (and (and (and (and (and (and (and (and (and (and (and (and (and (and (and (and (and (and (and (and (and (and (and (and (and (and (and (and (and (and (and (and (and (and (and (and (and (and (and (and (and (and (and (and (and (and (and (and (and (and (and (and (and (and (and (and (and (and (and (and (and (and (and (and (and (and (and (and (and (and (and (and (and (and (and (and (and (and (and (and (and (and (and (and (and (and (and (and (and (and (and (and (and (and (and (and (and (and (and (and (and (and (and (and (and (and (and (and (and (and (and (and (and (and (and (and (and (and (and (and (and (and (and (and (and (and (and (and (and (and (and (and (and (and (and (and (and (and (and (and (and (and (and (and (and (and (and (and (and (and (and (and (and (and (and (and (and (and (and (and (and (and (and (and (and (and (and (and (and (and (and (and (and (and (and (and (and (and (and (and (and (and (and (and (and (and (and (and (and (and (and (and (and (and (and (and (and (and (and (and (and (and (and (and (and (and (and (and (and (and (and (and (and (and (and (and (and (and (and (and (and (and (and (and (and (and (and (and (and (and (and (and (and (and (and (and (and (and (and (and (and (and (and (and (and (and (and (and (and (and (and (and (and (and (and (and (and (and (and (and (and (and (and (and (and (and (and (and (and (and (and (and (and (and (and (and (and (and (and (and (and (and (and (and (and (and (and (and (or (or P36 ?v_224) ?v_1) (or (or ?v_7 ?v_130) ?v_212)) (or (or P37 ?v_37) P44)) (or (or ?v_71 P35) ?v_70)) (or (or ?v_114 ?v_10) ?v_205)) (or ?v_257 P23)) (or (or ?v_35 ?v_17) P32)) (or (or ?v_39 ?v_18) ?v_171)) (or (or ?v_31 P38) ?v_67)) (or (or ?v_2 ?v_183) P40)) (or (or ?v_41 ?v_20) ?v_1)) (or (or ?v_2 ?v_21) P14)) (or (or ?v_166 ?v_13) ?v_29)) (or (or P41 P1) ?v_6)) (or (or ?v_42 P6) ?v_115)) (or (or ?v_11 ?v_193) ?v_8)) (or (or ?v_6 ?v_25) ?v_7)) (or (or ?v_36 ?v_40) ?v_16)) (or (or ?v_58 ?v_176) ?v_69)) (or (or ?v_8 ?v_9) ?v_161)) (or (or ?v_46 P24) ?v_159)) (or (or ?v_92 ?v_30) ?v_150)) (or (or ?v_246 ?v_87) ?v_80)) (or (or P46 ?v_226) ?v_10)) (or (or P41 ?v_26) ?v_38)) (or (or ?v_12 ?v_1) P40)) (or (or ?v_11 ?v_12) P14)) (or (or ?v_136 ?v_13) ?v_14)) (or (or ?v_28 ?v_203) ?v_33)) (or (or ?v_158 ?v_27) ?v_44)) (or (or ?v_52 ?v_62) ?v_63)) (or (or ?v_18 ?v_157) ?v_230)) (or (or (not ?v_217) ?v_57) ?v_20)) (or (or P12 ?v_21) P26)) (or (or P17 ?v_22) P32)) (or (or ?v_23 P22) ?v_91)) (or (or P2 ?v_144) ?v_132)) (or (or (not P46) ?v_24) ?v_48)) (or (or ?v_81 ?v_74) ?v_26)) (or (or ?v_195 ?v_64) ?v_122)) (or (or ?v_54 ?v_137) ?v_83)) (or (or ?v_27 ?v_182) ?v_141)) (or (or ?v_60 ?v_51) ?v_20)) (or (or ?v_73 P46) ?v_191)) (or (or ?v_18 ?v_59) ?v_68)) (or (or P11 ?v_116) ?v_1)) (or (or ?v_50 ?v_23) ?v_75)) (or (or ?v_175 ?v_30) ?v_31)) (or (or ?v_34 ?v_99) ?v_77)) (or (or ?v_31 ?v_33) ?v_34)) (or (or P18 ?v_56) ?v_88)) (or (or ?v_37 ?v_241) P41)) (or (or ?v_47 ?v_76) ?v_110)) (or (or ?v_100 ?v_38) ?v_55)) (or (or ?v_10 ?v_40) P11)) (or (or ?v_41 ?v_72) ?v_42)) (or (or P3 ?v_43) ?v_36)) (or (or P11 ?v_216) ?v_44)) (or (or ?v_103 P31) ?v_45)) (or (or ?v_22 ?v_142) ?v_104)) (or (or ?v_29 ?v_118) ?v_48)) (or (or ?v_211 ?v_49) ?v_50)) (or (or ?v_51 ?v_52) ?v_129)) (or (or ?v_173 ?v_55) ?v_95)) (or (or ?v_56 ?v_57) ?v_223)) (or (or P34 ?v_58) ?v_59)) (or (or ?v_60 ?v_45) ?v_28)) (or (or ?v_61 ?v_62) ?v_90)) (or (or ?v_200 P18) ?v_227)) (or (or ?v_64 ?v_111) ?v_105)) (or (or ?v_186 ?v_44) ?v_138)) (or (or ?v_78 P15) ?v_14)) (or (or ?v_65 P3) ?v_97)) (or (or P6 P45) ?v_117)) (or (or ?v_128 ?v_125) ?v_67)) (or (or ?v_50 ?v_68) ?v_94)) (or (or ?v_7 ?v_69) ?v_134)) (or (or ?v_71 ?v_35) ?v_11)) (or (or ?v_72 ?v_73) ?v_74)) (or (or ?v_84 ?v_75) ?v_73)) (or (or ?v_147 ?v_16) ?v_170)) (or (or P33 ?v_108) ?v_194)) (or (or ?v_10 ?v_70) P25)) (or (or ?v_120 ?v_86) ?v_78)) (or (or ?v_79 P41) ?v_80)) (or (or ?v_40 ?v_79) ?v_30)) (or (or ?v_151 P26) ?v_56)) (or (or ?v_81 ?v_29) ?v_155)) (or (or ?v_143 ?v_82) P9)) (or (or ?v_83 ?v_84) P38)) (or (or P28 ?v_85) ?v_36)) (or (or ?v_59 ?v_54) ?v_22)) (or (or ?v_86 ?v_250) ?v_87)) (or (or ?v_88 ?v_36) ?v_89)) (or (or ?v_13 ?v_112) ?v_18)) (or (or ?v_69 ?v_90) ?v_91)) (or (or ?v_92 ?v_82) ?v_84)) (or (or ?v_96 P15) ?v_75)) (or (or ?v_42 ?v_94) ?v_106)) (or (or ?v_27 ?v_52) P47)) (or (or ?v_232 ?v_47) ?v_239)) (or (or ?v_96 ?v_252) ?v_102)) (or (or ?v_98 ?v_78) P2)) (or (or ?v_209 ?v_100) P12)) (or (or ?v_13 ?v_190) P35)) (or (or ?v_26 ?v_70) ?v_62)) (or (or ?v_135 ?v_68) ?v_102)) (or (or ?v_103 ?v_104) P40)) (or (or ?v_7 ?v_36) ?v_14)) (or (or ?v_105 ?v_168) P15)) (or (or ?v_71 ?v_113) ?v_107)) (or (or P30 ?v_108) ?v_109)) (or (or P5 ?v_110) ?v_111)) (or (or ?v_92 ?v_88) ?v_27)) (or (or ?v_55 ?v_112) ?v_113)) (or (or ?v_14 ?v_165) ?v_114)) (or (or ?v_115 ?v_45) ?v_80)) (or (or ?v_77 ?v_91) ?v_13)) (or (or ?v_86 ?v_64) P47)) (or (or ?v_237 ?v_77) ?v_117)) (or (or ?v_118 ?v_87) P34)) (or (or P12 P32) ?v_119)) (or (or ?v_120 ?v_124) ?v_121)) (or (or ?v_50 ?v_105) ?v_198)) (or (or ?v_123 ?v_79) (not ?v_124))) (or (or P32 ?v_43) ?v_127)) (or (or ?v_24 ?v_51) ?v_126)) (or (or ?v_102 ?v_163) ?v_79)) (or (or P48 P37) ?v_125)) (or (or ?v_67 ?v_89) P4)) (or (or ?v_148 ?v_127) ?v_128)) (or (or ?v_44 ?v_64) ?v_164)) (or (or ?v_129 ?v_68) ?v_130)) (or (or ?v_169 ?v_131) ?v_22)) (or (or ?v_74 ?v_229) ?v_140)) (or (or P12 ?v_71) ?v_132)) (or (or ?v_133 P8) ?v_134)) (or (or ?v_92 ?v_185) P9)) (or (or ?v_236 ?v_184) ?v_80)) (or (or P4 ?v_26) ?v_136)) (or (or ?v_137 ?v_12) ?v_138)) (or (or P20 ?v_43) ?v_180)) (or (or ?v_44 P47) P14)) (or (or P13 ?v_123) ?v_139)) (or (or ?v_12 ?v_67) ?v_196)) (or (or ?v_178 P41) P25)) (or (or ?v_82 ?v_34) ?v_210)) (or (or P25 ?v_56) ?v_141)) (or (or ?v_142 ?v_162) P9)) (or (or ?v_92 ?v_187) ?v_126)) (or (or ?v_44 P22) ?v_160)) (or (or ?v_154 ?v_35) ?v_145)) (or (or ?v_89 ?v_201) ?v_123)) (or (or ?v_146 ?v_11) ?v_133)) (or (or ?v_144 ?v_147) P0)) (or (or ?v_148 ?v_8) ?v_56)) (or (or ?v_167 ?v_149) ?v_30)) (or (or P0 ?v_57) ?v_6)) (or (or ?v_27 ?v_215) P29)) (or (or ?v_150 ?v_254) ?v_233)) (or (or ?v_11 ?v_92) ?v_7)) (or (or ?v_90 ?v_130) ?v_85)) (or (or ?v_1 ?v_83) ?v_145)) (or (or ?v_120 P14) ?v_152)) (or (or P40 P17) ?v_153)) (or (or ?v_154 ?v_258) ?v_155)) (or (or ?v_156 P9) ?v_157)) (or (or ?v_120 ?v_55) ?v_146)) (or (or P3 ?v_23) ?v_54)) (or (or ?v_127 ?v_26) ?v_126)) (or (or P19 ?v_88) ?v_28)) (or (or ?v_149 ?v_158) ?v_86)) (or (or ?v_10 ?v_197) ?v_174)) (or (or ?v_150 ?v_33) ?v_160)) (or (or ?v_8 ?v_73) ?v_161)) (or (or ?v_162 ?v_54) ?v_79)) (or (or P19 ?v_7) ?v_6)) (or (or ?v_255 P26) ?v_163)) (or (or P30 ?v_164) ?v_10)) (or (or ?v_7 ?v_165) ?v_166)) (or (or ?v_36 ?v_135) ?v_177)) (or (or ?v_140 ?v_24) ?v_20)) (or (or ?v_91 P20) P26)) (or (or ?v_167 ?v_63) ?v_168)) (or (or ?v_169 ?v_96) ?v_71)) (or (or ?v_155 ?v_170) ?v_10)) (or (or P48 ?v_80) ?v_119)) (or (or ?v_151 ?v_78) ?v_137)) (or (or ?v_171 ?v_72) ?v_172)) (or (or ?v_21 ?v_156) ?v_56)) (or (or ?v_173 P41) P28)) (or (or ?v_174 ?v_175) ?v_176)) (or (or ?v_83 ?v_62) ?v_177)) (or (or P32 ?v_98) ?v_12)) (or (or ?v_178 ?v_62) ?v_179)) (or (or ?v_162 P22) ?v_126)) (or (or ?v_180 P47) ?v_45)) (or (or ?v_199 P16) ?v_189)) (or (or ?v_182 ?v_183) ?v_192)) (or (or ?v_78 P20) ?v_188)) (or (or ?v_169 ?v_179) P2)) (or (or ?v_118 ?v_184) ?v_170)) (or (or ?v_131 P38) ?v_48)) (or (or ?v_123 ?v_39) ?v_9)) (or (or ?v_202 ?v_125) P45)) (or (or ?v_94 ?v_185) ?v_75)) (or (or ?v_186 ?v_149) ?v_187)) (or (or P13 P41) P18)) (or (or ?v_221 ?v_80) ?v_189)) (or (or P23 ?v_96) ?v_108)) (or (or ?v_242 P9) ?v_27)) (or (or ?v_100 ?v_190) ?v_191)) (or (or ?v_192 ?v_193) ?v_117)) (or (or ?v_179 P14) ?v_6)) (or (or ?v_40 ?v_136) ?v_194)) (or (or ?v_29 ?v_128) P15)) (or (or ?v_195 ?v_94) ?v_196)) (or (or P4 ?v_156) ?v_163)) (or (or ?v_143 ?v_102) ?v_160)) (or (or ?v_82 P4) ?v_22)) (or (or ?v_197 ?v_198) P47)) (or (or ?v_199 ?v_49) ?v_172)) (or (or ?v_76 ?v_99) ?v_83)) (or (or P49 ?v_20) ?v_80)) (or (or ?v_206 ?v_60) ?v_71)) (or (or ?v_193 ?v_200) ?v_62)) (or (or P8 P31) P23)) (or (or ?v_56 ?v_31) ?v_89)) (or (or ?v_36 ?v_201) P48)) (or (or ?v_139 ?v_40) ?v_114)) (or (or P33 P40) P5)) (or (or ?v_202 ?v_89) ?v_82)) (or (or ?v_189 ?v_126) P37)) (or (or ?v_77 ?v_203) ?v_135)) (or (or ?v_8 ?v_72) ?v_81)) (or (or ?v_149 ?v_82) ?v_60)) (or (or ?v_204 ?v_208) ?v_50)) (or ?v_259 ?v_55)) (or (or ?v_72 ?v_151) ?v_157)) (or (or P26 P23) ?v_75)) (or (or ?v_165 ?v_7) ?v_44)) (or (or ?v_214 ?v_7) ?v_51)) (or (or ?v_222 ?v_40) ?v_149)) (or (or ?v_206 P43) P12)) (or (or ?v_207 ?v_100) ?v_18)) (or (or P30 ?v_208) ?v_59)) (or (or ?v_124 ?v_130) ?v_49)) (or (or ?v_209 ?v_210) ?v_149)) (or (or ?v_211 ?v_147) ?v_91)) (or (or P0 ?v_147) ?v_6)) (or (or ?v_212 ?v_2) ?v_249)) (or (or ?v_122 ?v_14) ?v_213)) (or (or ?v_201 ?v_214) ?v_137)) (or (or ?v_215 ?v_51) ?v_138)) (or (or ?v_126 ?v_131) ?v_87)) (or (or ?v_26 ?v_179) ?v_216)) (or (or ?v_166 ?v_79) ?v_220)) (or (or ?v_45 ?v_253) ?v_158)) (or (or ?v_163 ?v_22) ?v_217)) (or (or P1 ?v_50) ?v_48)) (or (or ?v_37 ?v_219) ?v_6)) (or (or ?v_100 P35) P41)) (or (or ?v_24 ?v_88) ?v_203)) (or (or ?v_63 P13) ?v_85)) (or (or ?v_30 ?v_113) ?v_216)) (or (or ?v_218 ?v_79) ?v_7)) (or (or ?v_35 ?v_197) ?v_42)) (or (or ?v_90 ?v_188) P18)) (or (or P21 ?v_160) P33)) (or (or ?v_134 ?v_134) ?v_14)) (or (or ?v_218 P26) ?v_22)) (or (or ?v_219 ?v_220) P42)) (or (or ?v_16 ?v_35) P17)) (or (or ?v_14 ?v_78) ?v_86)) (or (or ?v_191 ?v_71) ?v_73)) (or (or ?v_157 ?v_168) ?v_64)) (or (or ?v_54 P35) ?v_175)) (or (or ?v_39 ?v_221) ?v_145)) (or (or ?v_166 P9) ?v_26)) (or (or P35 ?v_215) ?v_23)) (or (or ?v_70 ?v_203) ?v_222)) (or (or ?v_51 ?v_162) ?v_183)) (or (or P37 P26) ?v_196)) (or (or ?v_27 ?v_110) ?v_159)) (or (or P37 ?v_83) ?v_47)) (or (or ?v_193 ?v_37) P38)) (or (or ?v_223 ?v_136) ?v_98)) (or (or ?v_195 ?v_105) ?v_260)) (or (or ?v_224 ?v_163) ?v_193)) (or (or ?v_225 ?v_128) P32)) (or (or ?v_146 ?v_225) ?v_2)) (or (or P38 ?v_45) ?v_192)) (or (or P12 ?v_211) ?v_146)) (or (or ?v_99 P35) P24)) (or (or ?v_226 ?v_198) ?v_227)) (or (or P14 ?v_198) ?v_228)) (or (or ?v_229 ?v_205) ?v_180)) (or (or ?v_230 P35) ?v_173)) (or (or P18 ?v_210) ?v_162)) (or (or ?v_9 ?v_22) ?v_152)) (or (or ?v_138 ?v_204) P29)) (or (or ?v_231 ?v_25) P22)) (or (or ?v_158 P10) ?v_142)) (or (or ?v_76 ?v_190) ?v_112)) (or (or ?v_145 ?v_71) P13)) (or (or ?v_105 ?v_7) ?v_231)) (or (or P30 ?v_29) ?v_191)) (or (or ?v_14 ?v_95) ?v_211)) (or (or ?v_49 ?v_81) P27)) (or (or ?v_17 ?v_114) ?v_113)) (or (or ?v_174 ?v_77) ?v_20)) (or (or ?v_25 ?v_55) ?v_54)) (or (or ?v_71 P27) ?v_109)) (or (or ?v_86 ?v_62) ?v_224)) (or (or ?v_52 ?v_100) ?v_202)) (or (or ?v_79 ?v_213) ?v_155)) (or (or ?v_211 ?v_74) ?v_21)) (or (or ?v_135 P2) ?v_133)) (or (or ?v_121 ?v_7) ?v_35)) (or (or P4 P8) P24)) (or (or ?v_121 P1) ?v_171)) (or (or ?v_104 ?v_138) ?v_231)) (or (or ?v_41 ?v_85) P22)) (or (or P26 ?v_216) ?v_102)) (or (or ?v_149 ?v_248) ?v_70)) (or (or ?v_34 ?v_207) ?v_41)) (or (or ?v_92 ?v_138) ?v_41)) (or (or ?v_233 ?v_60) ?v_195)) (or (or ?v_230 P45) ?v_147)) (or (or ?v_43 ?v_161) ?v_180)) (or (or ?v_113 ?v_221) P28)) (or (or ?v_199 ?v_67) ?v_121)) (or (or P13 ?v_212) ?v_207)) (or (or P2 ?v_221) ?v_213)) (or (or ?v_220 ?v_152) ?v_201)) (or (or ?v_138 ?v_177) ?v_199)) (or (or ?v_23 ?v_58) ?v_77)) (or (or ?v_191 ?v_34) ?v_20)) (or (or P31 ?v_86) ?v_161)) (or (or ?v_222 P22) ?v_102)) (or (or ?v_156 P16) P19)) (or (or ?v_107 P25) ?v_135)) (or (or ?v_203 ?v_137) ?v_234)) (or (or ?v_145 ?v_106) ?v_108)) (or (or ?v_131 P44) ?v_235)) (or (or ?v_230 P23) ?v_133)) (or (or ?v_97 ?v_189) ?v_168)) (or (or ?v_238 P48) ?v_236)) (or (or ?v_25 ?v_22) ?v_72)) (or (or ?v_51 P24) ?v_14)) (or (or ?v_16 ?v_10) ?v_168)) (or (or ?v_237 ?v_111) ?v_25)) (or (or P46 ?v_166) P15)) (or (or ?v_98 ?v_92) ?v_8)) (or (or ?v_217 P23) ?v_98)) (or (or ?v_2 ?v_238) P10)) (or (or P35 ?v_239) ?v_237)) (or (or ?v_128 ?v_84) P45)) (or (or ?v_232 ?v_71) ?v_2)) (or (or ?v_81 ?v_240) ?v_1)) (or (or ?v_176 ?v_134) P27)) (or (or ?v_162 ?v_135) ?v_136)) (or (or P19 ?v_89) ?v_174)) (or (or P7 P3) ?v_243)) (or (or ?v_146 P5) ?v_182)) (or (or ?v_133 ?v_185) ?v_16)) (or (or ?v_239 ?v_223) ?v_241)) (or (or P6 P22) ?v_202)) (or (or ?v_196 P32) ?v_122)) (or (or ?v_206 P6) ?v_44)) (or (or ?v_16 ?v_241) P25)) (or (or P38 ?v_49) ?v_221)) (or (or P39 ?v_86) ?v_49)) (or (or ?v_144 ?v_242) ?v_239)) (or (or ?v_133 ?v_245) ?v_243)) (or (or ?v_174 ?v_179) ?v_176)) (or (or ?v_128 ?v_244) ?v_240)) (or (or ?v_212 ?v_51) ?v_104)) (or (or ?v_83 ?v_61) P15)) (or (or P29 P1) ?v_152)) (or (or ?v_12 P35) ?v_64)) (or (or ?v_100 ?v_45) ?v_227)) (or (or ?v_88 ?v_233) ?v_245)) (or (or ?v_168 ?v_29) ?v_119)) (or (or ?v_246 ?v_183) ?v_145)) (or (or P38 ?v_7) ?v_130)) (or (or ?v_161 ?v_239) ?v_247)) (or (or ?v_176 ?v_106) ?v_147)) (or (or ?v_17 ?v_156) P49)) (or (or ?v_136 ?v_152) ?v_223)) (or (or ?v_248 ?v_227) ?v_51)) (or (or P19 ?v_112) ?v_172)) (or (or ?v_52 ?v_63) ?v_149)) (or (or ?v_249 ?v_218) ?v_146)) (or (or ?v_31 ?v_226) P40)) (or (or ?v_174 ?v_195) ?v_25)) (or (or ?v_142 ?v_125) ?v_115)) (or (or ?v_98 ?v_227) ?v_26)) (or (or ?v_148 ?v_79) ?v_183)) (or (or ?v_218 ?v_137) ?v_234)) (or (or ?v_21 ?v_250) ?v_190)) (or (or ?v_46 ?v_137) ?v_161)) (or (or P32 ?v_165) ?v_154)) (or (or ?v_210 ?v_80) ?v_11)) (or (or ?v_51 P1) ?v_26)) (or (or ?v_16 ?v_43) ?v_110)) (or (or ?v_251 ?v_29) ?v_45)) (or (or P19 ?v_87) ?v_6)) (or (or ?v_36 ?v_182) ?v_20)) (or (or P36 ?v_211) ?v_170)) (or (or ?v_108 ?v_177) ?v_90)) (or (or ?v_119 ?v_203) ?v_154)) (or (or ?v_175 ?v_87) ?v_68)) (or (or ?v_36 P41) ?v_131)) (or (or ?v_123 ?v_239) ?v_18)) (or (or ?v_56 ?v_129) ?v_138)) (or (or ?v_58 ?v_35) ?v_187)) (or (or ?v_110 ?v_152) ?v_68)) (or (or ?v_144 P17) ?v_137)) (or (or P41 P21) ?v_189)) (or (or ?v_75 ?v_26) ?v_94)) (or (or ?v_185 ?v_109) ?v_38)) (or (or ?v_199 ?v_227) P27)) (or (or ?v_127 P1) ?v_195)) (or (or ?v_199 ?v_179) ?v_76)) (or (or ?v_27 P5) ?v_57)) (or (or ?v_23 ?v_188) ?v_248)) (or (or ?v_119 P3) P32)) (or (or ?v_201 ?v_45) ?v_58)) (or (or ?v_103 ?v_169) P30)) (or (or ?v_114 ?v_65) ?v_113)) (or (or ?v_92 ?v_43) P38)) (or (or ?v_22 P21) P23)) (or (or P48 ?v_24) ?v_251)) (or (or ?v_232 ?v_173) P15)) (or (or ?v_68 ?v_184) ?v_238)) (or (or P32 ?v_161) ?v_213)) (or (or ?v_252 ?v_201) ?v_253)) (or (or ?v_178 ?v_159) ?v_146)) (or (or ?v_165 P1) ?v_118)) (or (or ?v_228 ?v_249) P39)) (or (or ?v_197 ?v_110) ?v_121)) (or (or ?v_35 P31) ?v_86)) (or (or P20 ?v_172) P24)) (or (or ?v_188 ?v_132) ?v_75)) (or (or ?v_43 P4) ?v_60)) (or (or ?v_85 ?v_138) ?v_182)) (or (or ?v_18 P10) P18)) (or (or ?v_169 ?v_90) ?v_252)) (or (or ?v_67 P19) ?v_220)) (or (or ?v_151 ?v_244) ?v_110)) (or (or ?v_126 ?v_121) ?v_124)) (or (or ?v_241 ?v_78) P13)) (or (or ?v_100 ?v_78) ?v_6)) (or (or ?v_60 ?v_201) ?v_126)) (or (or ?v_71 ?v_254) ?v_108)) (or (or ?v_221 ?v_98) ?v_70)) (or (or P38 ?v_34) ?v_196)) (or (or ?v_159 ?v_65) ?v_249)) (or (or ?v_177 ?v_29) ?v_247)) (or (or ?v_10 ?v_245) P0)) (or (or ?v_249 ?v_236) ?v_225)) (or (or ?v_14 ?v_6) ?v_62)) (or (or ?v_117 P23) P1)) (or (or ?v_36 ?v_76) ?v_144)) (or (or ?v_72 ?v_65) ?v_34)) (or (or ?v_171 ?v_23) P3)) (or (or ?v_29 ?v_216) ?v_74)) (or (or ?v_117 ?v_7) ?v_120)) (or (or P13 P20) P8)) (or (or ?v_252 ?v_17) ?v_10)) (or (or ?v_163 ?v_172) ?v_129)) (or (or ?v_160 ?v_215) ?v_191)) (or (or ?v_201 ?v_238) ?v_65)) (or (or ?v_234 ?v_23) ?v_50)) (or (or ?v_191 ?v_186) ?v_139)) (or (or ?v_125 ?v_199) ?v_188)) (or (or ?v_230 ?v_74) ?v_61)) (or (or ?v_241 P3) ?v_220)) (or (or ?v_86 ?v_127) P40)) (or (or ?v_16 ?v_84) ?v_232)) (or (or ?v_231 ?v_92) ?v_212)) (or (or ?v_229 ?v_42) ?v_107)) (or (or ?v_138 ?v_123) ?v_51)) (or (or P12 ?v_136) ?v_186)) (or (or P7 ?v_44) P42)) (or (or P18 ?v_33) ?v_127)) (or (or ?v_77 ?v_129) ?v_245)) (or (or ?v_133 ?v_129) ?v_126)) (or (or ?v_130 ?v_164) ?v_192)) (or (or ?v_170 ?v_168) P4)) (or (or ?v_91 ?v_203) ?v_241)) (or (or ?v_21 ?v_31) ?v_92)) (or (or ?v_28 ?v_30) ?v_44)) (or (or P31 P35) ?v_58)) (or (or ?v_161 ?v_170) ?v_28)) (or (or ?v_240 ?v_238) ?v_83)) (or (or ?v_237 P43) ?v_182)) (or (or ?v_223 ?v_182) ?v_6)) (or (or ?v_106 ?v_13) P24)) (or (or ?v_255 ?v_20) ?v_73)) (or (or ?v_143 ?v_209) ?v_215)) (or (or P29 ?v_167) ?v_118)) (or (or ?v_147 ?v_70) ?v_92)) (or (or ?v_54 ?v_256) ?v_49)) (or (or ?v_85 P33) ?v_56)) (or (or ?v_239 ?v_169) P25)) (or (or P19 ?v_169) ?v_212)) (or (or ?v_151 ?v_150) ?v_209)) (or (or P19 ?v_197) ?v_114)) (or (or ?v_255 ?v_234) ?v_170)) (or (or P14 ?v_10) ?v_135)) (or (or ?v_129 ?v_57) P30)) (or (or ?v_106 ?v_226) ?v_11)) (or (or ?v_42 P10) ?v_44)) (or (or ?v_163 P19) P18)) (or (or ?v_208 ?v_253) ?v_168)) (or (or ?v_208 ?v_237) ?v_239)) (or (or ?v_73 ?v_173) ?v_59)) (or (or ?v_184 ?v_157) ?v_29)) (or (or P29 ?v_215) ?v_94)) (or (or ?v_26 ?v_91) P3)) (or (or P45 ?v_199) ?v_117)) (or (or P28 ?v_46) ?v_48)) (or (or ?v_99 ?v_60) ?v_244)) (or (or ?v_208 P28) P2)) (or (or ?v_47 ?v_160) P48)) (or (or ?v_52 ?v_145) ?v_82)) (or (or ?v_90 ?v_232) ?v_58)) (or (or ?v_165 P26) ?v_80)) (or (or ?v_230 ?v_187) ?v_158)) (or (or ?v_251 ?v_28) ?v_112)) (or (or ?v_135 P32) ?v_238)) (or (or ?v_149 ?v_235) ?v_50)) (or (or ?v_105 ?v_254) P40)) (or (or P18 ?v_104) P42)) (or ?v_257 ?v_143)) (or (or ?v_164 ?v_112) ?v_225)) (or (or ?v_254 ?v_253) ?v_223)) (or (or ?v_258 ?v_129) ?v_243)) (or (or ?v_35 ?v_153) ?v_191)) (or (or P18 ?v_195) ?v_18)) (or (or ?v_7 ?v_162) P9)) (or (or P29 ?v_205) ?v_10)) (or (or ?v_78 P37) ?v_110)) (or (or ?v_81 ?v_70) ?v_144)) (or (or ?v_171 P25) ?v_78)) (or (or ?v_1 P36) ?v_219)) (or (or ?v_80 ?v_126) ?v_179)) (or (or ?v_114 ?v_30) P24)) (or (or ?v_120 P17) ?v_253)) (or (or P48 ?v_11) ?v_47)) (or (or ?v_118 ?v_106) ?v_172)) (or (or ?v_144 ?v_75) ?v_90)) (or (or ?v_150 ?v_43) ?v_242)) (or (or ?v_222 ?v_175) ?v_237)) (or (or ?v_254 ?v_86) ?v_208)) (or (or ?v_124 ?v_132) ?v_252)) (or (or ?v_160 ?v_251) ?v_20)) (or (or ?v_46 ?v_79) ?v_207)) (or (or P17 ?v_59) ?v_18)) (or (or P5 ?v_219) ?v_118)) (or (or ?v_176 ?v_223) ?v_11)) (or (or ?v_40 ?v_85) ?v_235)) (or (or ?v_224 ?v_126) ?v_184)) (or (or P1 P6) P47)) (or (or P14 P11) P28)) (or (or P14 ?v_139) ?v_117)) (or (or ?v_54 ?v_195) ?v_164)) (or (or P25 ?v_218) ?v_183)) (or (or ?v_239 ?v_234) ?v_193)) (or (or ?v_144 ?v_6) P46)) (or (or ?v_203 P19) ?v_148)) (or (or ?v_170 ?v_65) ?v_102)) (or (or ?v_230 ?v_77) ?v_57)) (or (or ?v_38 ?v_152) P3)) (or (or ?v_11 ?v_125) P18)) (or (or ?v_81 ?v_199) ?v_96)) (or (or ?v_25 ?v_198) P24)) (or (or ?v_244 ?v_116) ?v_143)) (or (or ?v_88 ?v_228) ?v_82)) (or (or ?v_82 ?v_102) ?v_235)) (or (or ?v_9 ?v_83) ?v_216)) (or (or ?v_179 ?v_179) ?v_211)) (or (or ?v_79 ?v_167) ?v_133)) (or (or P14 ?v_117) ?v_256)) (or (or ?v_214 ?v_102) ?v_159)) (or (or ?v_29 ?v_183) ?v_83)) (or (or ?v_239 P27) ?v_223)) (or (or ?v_187 ?v_238) ?v_104)) (or (or ?v_71 ?v_253) ?v_137)) (or (or P3 ?v_169) ?v_234)) (or ?v_259 ?v_217)) (or (or ?v_207 ?v_260) ?v_226)) (or (or P38 ?v_25) ?v_196)) (or (or ?v_140 ?v_22) ?v_51)) (or (or P32 ?v_206) ?v_149)) (or (or ?v_142 P26) P27)) (or (or P35 ?v_242) ?v_155)) (or (or ?v_126 P13) ?v_231)))))))))))))))))))))))))))))))))))
(check-sat)
(exit)
